************************************************************************
file with basedata            : md377_.bas
initial value random generator: 1350691905
************************************************************************
projects                      :  1
jobs (incl. supersource/sink ):  22
horizon                       :  158
RESOURCES
  - renewable                 :  2   R
  - nonrenewable              :  2   N
  - doubly constrained        :  0   D
************************************************************************
PROJECT INFORMATION:
pronr.  #jobs rel.date duedate tardcost  MPM-Time
    1     20      0       25        1       25
************************************************************************
PRECEDENCE RELATIONS:
jobnr.    #modes  #successors   successors
   1        1          3           2   3   4
   2        3          3           8   9  12
   3        3          3           5   7  11
   4        3          3           7  11  20
   5        3          3           6   8  19
   6        3          2          15  17
   7        3          2          10  17
   8        3          2          15  20
   9        3          3          10  11  15
  10        3          2          14  16
  11        3          1          17
  12        3          1          13
  13        3          3          19  20  21
  14        3          1          21
  15        3          1          18
  16        3          2          18  19
  17        3          1          18
  18        3          1          21
  19        3          1          22
  20        3          1          22
  21        3          1          22
  22        1          0        
************************************************************************
REQUESTS/DURATIONS:
jobnr. mode duration  R 1  R 2  N 1  N 2
------------------------------------------------------------------------
  1      1     0       0    0    0    0
  2      1     3      10    0    1    4
         2     5       0    4    1    3
         3     7       0    2    1    2
  3      1     1       0    8    2   10
         2     4       9    0    2    9
         3     9       7    0    1    7
  4      1     2       0    7    5    2
         2     3       4    0    3    2
         3     8       0    7    2    2
  5      1     2       5    0    4    7
         2     2       0    5    8    6
         3     2       2    0    7    5
  6      1     3       0    6    9    7
         2     4       0    4    7    7
         3     6       0    3    5    4
  7      1     8       0    3    8    2
         2     8       5    0    8    2
         3    10       1    0    6    2
  8      1     3       4    0    9    9
         2     5       0    7    7    9
         3    10       0    6    6    8
  9      1     2       9    0    5    7
         2     3       0    4    5    7
         3     5       0    4    4    6
 10      1     1      10    0    7    3
         2     2      10    0    5    2
         3     9       0    7    5    2
 11      1     8       6    0    6    9
         2     9       0    8    6    9
         3     9       4    0    4    7
 12      1     6       0    8    8    4
         2     9       0    7    7    2
         3     9       5    0    8    3
 13      1     8       1    0    4    9
         2     8       0   10    5    9
         3     9       0   10    3    9
 14      1     8       5    0    7    8
         2     8       0    7    6    9
         3     9       0    7    5    7
 15      1     7       6    0    8    5
         2     9       0    2    6    5
         3    10       2    0    6    4
 16      1     1       0    9    8    9
         2     7       5    0    6    6
         3     9       0    3    1    6
 17      1     3      10    0    7   10
         2     7       0   10    6    6
         3     9       0    9    5    1
 18      1     6       8    0    9    8
         2     7       0    8    8    7
         3     8       0    3    8    4
 19      1     1       2    0    8    6
         2     4       2    0    6    6
         3     5       0    9    3    5
 20      1     3       7    0    5    9
         2     5       6    0    5    6
         3    10       0    3    3    4
 21      1     3       7    0    5    9
         2     4       7    0    4    9
         3     5       7    0    3    9
 22      1     0       0    0    0    0
************************************************************************
RESOURCEAVAILABILITIES:
  R 1  R 2  N 1  N 2
   12   10  130  138
************************************************************************
MAXIMAL LAGS:
from  to  type  delay
    1   22   ES      0
    1    2   ES      0
    2   22   ES      0
    1    3   ES      0
    3   22   ES      0
    1    4   ES      0
    4   22   ES      0
    1    5   ES      0
    5   22   ES      0
    1    6   ES      0
    6   22   ES      0
    1    7   ES      0
    7   22   ES      0
    1    8   ES      0
    8   22   ES      0
    1    9   ES      0
    9   22   ES      0
    1   10   ES      0
   10   22   ES      0
    1   11   ES      0
   11   22   ES      0
    1   12   ES      0
   12   22   ES      0
    1   13   ES      0
   13   22   ES      0
    1   14   ES      0
   14   22   ES      0
    1   15   ES      0
   15   22   ES      0
    1   16   ES      0
   16   22   ES      0
    1   17   ES      0
   17   22   ES      0
    1   18   ES      0
   18   22   ES      0
    1   19   ES      0
   19   22   ES      0
    1   20   ES      0
   20   22   ES      0
    1   21   ES      0
   21   22   ES      0
    1   22   ES      0
    2    8   SS     -1
    2    8   SE      1
    2    8   ES      3
    2    8   EE      1
    2    9   SS      7
    2    9   SE     -2
    2    9   ES      7
    2    9   EE      2
    2   12   SS      7
    2   12   SE     -7
    2   12   ES      6
    2   12   EE      0
    3    5   SS     -7
    3    5   SE     11
    3    5   ES      1
    3    5   EE     -5
    3    7   SS     -7
    3    7   SE     10
    3    7   ES      3
    3    7   EE     -6
    3   11   SS     -7
    3   11   SE     -4
    3   11   ES     -5
    3   11   EE      3
    4    7   SS     12
    4    7   SE    -11
    4    7   ES     -6
    4    7   EE      9
    4   11   SS      8
    4   11   SE      7
    4   11   ES    -10
    4   11   EE      6
    4   20   SS      9
    4   20   SE    -11
    4   20   ES     -2
    4   20   EE      1
    5    6   SS      0
    5    6   SE     12
    5    6   ES     -2
    5    6   EE      9
    5    8   SS     -9
    5    8   SE     -4
    5    8   ES    -10
    5    8   EE      9
    5   19   SS     -5
    5   19   SE     -3
    5   19   ES     -6
    5   19   EE    -12
    6   15   SS      2
    6   15   SE      0
    6   15   ES      4
    6   15   EE      8
    6   17   SS     -5
    6   17   SE     -8
    6   17   ES      6
    6   17   EE     12
    7   10   SS      4
    7   10   SE      2
   10    7   SE      0
    7   10   ES      0
    7   10   EE     10
    7   17   SS      5
    7   17   SE    -10
    7   17   ES      8
    7   17   EE      8
    8   15   SS     11
    8   15   SE      1
    8   15   ES    -11
    8   15   EE     -1
    8   20   SS     11
    8   20   SE      8
    8   20   ES    -10
    8   20   EE      6
    9   10   SS     -9
    9   10   SE      3
    9   10   ES    -12
    9   10   EE     -7
    9   11   SS      9
    9   11   SE     -4
    9   11   ES     -7
    9   11   EE     -5
    9   15   SS      1
    9   15   SE     11
    9   15   ES     -5
    9   15   EE      2
   10   14   SS     -4
   10   14   SE     11
   10   14   ES      9
   10   14   EE     -6
   10   16   SS      2
   10   16   SE     -5
   10   16   ES      5
   10   16   EE    -11
   11   17   SS    -10
   11   17   SE     -6
   11   17   ES    -10
   11   17   EE      4
   12   13   SS     -4
   12   13   SE     -6
   12   13   ES     -3
   12   13   EE    -10
   13   19   SS     -6
   13   19   SE     -1
   13   19   ES      9
   13   19   EE      3
   13   20   SS     10
   13   20   SE     -9
   13   20   ES      1
   13   20   EE     11
   13   21   SS      5
   13   21   SE     -8
   13   21   ES      1
   13   21   EE     -9
   14   21   SS    -10
   14   21   SE     -9
   14   21   ES     11
   14   21   EE     -3
   15   18   SS      2
   15   18   SE      0
   15   18   ES     -7
   15   18   EE    -12
   16   18   SS      2
   16   18   SE     -6
   16   18   ES     -4
   16   18   EE      2
   16   19   SS      5
   16   19   SE      3
   16   19   ES     12
   16   19   EE     -5
   17   18   SS     11
   17   18   SE     -1
   17   18   ES     -3
   17   18   EE     -9
   18   21   SS     -4
   18   21   SE     -2
   18   21   ES     -1
   18   21   EE      1
************************************************************************
